N = 21;
MinK = 2;
Capacity = 160;

X = array1d(0..21, [30, 37, 49, 52, 31, 52, 42, 52, 57, 62, 42, 27, 43, 58, 58, 37, 38, 61, 62, 63, 45, 56]);
Y = array1d(0..21, [40, 52, 49, 64, 62, 33, 41, 41, 58, 42, 57, 68, 67, 48, 27, 69, 46, 33, 63, 69, 35, 37]);

Demands = [7, 30, 16, 23, 11, 19, 15, 28, 8, 8, 7, 14, 6, 19, 11, 12, 26, 17, 6, 15, 10];
